/* Objective function */
max: ;

/* Constraints */
R1: +x5 <= 0;
R2: +x7 <= 0;
+x6 +x8 <= 0;
R4: +x2 <= 0;
+x5 +x10 +x11 <= 0;
R6: +x12 <= 0;
R7: +x1 <= 0;
R8: +x4 <= 0;
+x2 +x3 <= 0;
0 x1 <= 1;
R11: +x13 <= 0;
+x9 +x14 <= 0;
R13: +x15 <= 0;
+x1 +x3 <= 0;
R15: +x4 <= 0;
R16: +x6 >= 0;
+x1 +x2 +x3 >= 0;
R18: +x9 >= 0;
R19: +x5 >= 0;
R20: +x8 >= 0;
R21: +x10 >= 0;
+x7 +x12 >= 0;
R23: +x11 >= 0;
R24: +x4 >= 0;
R25: +x6 >= 0;
+x10 +x11 >= 0;
R27: +x8 >= 0;
R28: +x14 >= 0;
+x13 +x15 >= 0;
R30: +x1 >= 0;
R31: +x2 >= 0;
R32: +x3 >= 0;
R33: +x4 >= 0;
R34: +x5 >= 0;
R35: +x6 >= 0;
R36: +x7 >= 0;
R37: +x8 >= 0;
R38: +x9 >= 0;
R39: +x10 >= 0;
R40: +x11 >= 0;
R41: +x12 >= 0;
R42: +x13 >= 0;
R43: +x14 >= 0;
R44: +x15 >= 0;
